CMD:
./solvers/bin/cadical --plain --no-reduce -t 1600 ./data/cnfs//circular_pointer_top_w32_d16_e0/circular_pointer_top_w32_d16_e0.48.cnf

c --- [ banner ] -------------------------------------------------------------
c 
c CaDiCaL SAT Solver
c Copyright (c) 2016-2024
c A. Biere, M. Fleury, N. Froleyks, K. Fazekas, F. Pollitt, T. Faller
c JKU Linz, University of Freiburg, TU Wien
c 
c Version 2.1.3 5296d3d2a9bf48c154ab2acb5e44625776d821bf
c g++ (Gentoo 12.3.1_p20230526 p2) 12.3.1 20230526 -Wall -Wextra -O3 -DNDEBUG
c Sat Aug 9 07:26:21 PDT 2025 Linux cedar2.int.cedar.computecanada.ca 5.14.0-362.24.2.el9_3.x86_64 x86_64
c 
c --- [ limit ] --------------------------------------------------------------
c 
c setting time limit to 1600 seconds real time (due to '-t 1600')
c 
c --- [ parsing input ] ------------------------------------------------------
c 
c reading DIMACS file from './data/cnfs//circular_pointer_top_w32_d16_e0/circular_pointer_top_w32_d16_e0.48.cnf'
c opening file to read './data/cnfs//circular_pointer_top_w32_d16_e0/circular_pointer_top_w32_d16_e0.48.cnf'
c found 'p cnf 220810 650476' header
c parsed 650476 clauses in 0.11 seconds process time
c 
c --- [ options ] ------------------------------------------------------------
c 
c   --compact=false                (different from default 'true')
c   --decompose=false              (different from default 'true')
c   --deduplicate=false            (different from default 'true')
c   --elim=false                   (different from default 'true')
c   --probe=false                  (different from default 'true')
c   --reduce=false                 (different from default 'true')
c   --subsume=false                (different from default 'true')
c   --ternary=false                (different from default 'true')
c   --transred=false               (different from default 'true')
c   --vivify=false                 (different from default 'true')
c 
c --- [ solving ] ------------------------------------------------------------
c 
c time measured in process time since initialization
c 
c  seconds   reductions  redundant  irredundant
c          MB    restarts       trail       variables
c           level   conflicts       glue          remaining
c 
c *  0.11 104  0 0   0    0    0  0% 0 627853 208411 94%
c {  0.14 107  0 0   0    0    0  0% 0 627853 208411 94%
c i  0.19 109 2190 0   3  425  385 60% 2 627853 208239 94%
c i  0.35 109 1836 0  32  533  482 55% 3 627853 208229 94%
c i  0.57 109 1156 0 117  856  788 43% 7 627853 208221 94%
c }  0.60 109 998 0 126 1000  921 40% 7 627853 208045 94%
c [  0.60 109  0 0 126 1000  921  0% 0 627853 208045 94%
c O  0.61 109 967 0 126 1003  924 19% 6 627853 208045 94%
c ]  1.15 110 1303 0 127 3000 2700 58% 15 627853 208045 94%
c {  1.15 110 998 0 127 3000 2700 40% 7 627853 208045 94%
c F  1.15 110 991 0 127 3012 2707 40% 7 627853 208045 94%
c i  1.15 110 991 0 127 3012 2707 40% 7 627853 207384 94%
c i  1.15 110 988 0 127 3015 2709 39% 7 627853 207242 94%
c #  1.50 111 309 0 213 6014 5361 32% 6 627853 206549 94%
c }  1.53 111 298 0 218 6177 5508 32% 6 627853 206549 94%
c 1  1.53 111 298 0 218 6177 5508 32% 6 627853 206549 94%
c 
c --- [ result ] -------------------------------------------------------------
c 
s SATISFIABLE
v 1 -2 -3 -4 -5 6 -7 -8 -9 -10 11 -12 -13 14 15 -16 -17 18 19 -20 -21 22 -23
v -24 25 26 27 28 -29 30 31 -32 -33 -34 35 36 37 38 -39 -40 -41 42 -43 -44 -45
v 46 47 48 -49 -50 -51 -52 -53 -54 55 -56 57 -58 -59 60 -61 62 63 -64 65 66
v -67 68 69 -70 -71 -72 -73 74 75 -76 77 -78 79 -80 -81 -82 -83 -84 -85 86 87
v -88 -89 90 -91 -92 -93 -94 -95 -96 97 98 99 100 -101 102 103 104 -105 106
v 107 -108 109 110 -111 -112 -113 -114 115 -116 -117 118 -119 120 121 -122
v -123 124 125 -126 -127 128 -129 130 -131 132 -133 134 -135 -136 -137 138 139
v 140 -141 142 -143 144 -145 -146 -147 -148 -149 -150 -151 -152 153 -154 -155
v 156 157 -158 -159 160 -161 162 163 -164 -165 -166 167 168 -169 170 -171 172
v 173 174 175 176 -177 -178 -179 180 -181 182 -183 -184 -185 186 187 -188 -189
v -190 191 192 193 -194 -195 196 197 198 -199 200 -201 202 203 204 -205 206
v -207 208 209 -210 -211 -212 -213 -214 215 216 217 -218 219 220 -221 -222
v -223 -224 225 -226 227 -228 229 230 231 -232 233 234 235 -236 -237 238 -239
v -240 -241 242 -243 -244 -245 -246 247 248 249 250 251 -252 -253 254 -255
v -256 -257 258 -259 260 261 -262 -263 264 265 -266 -267 268 -269 -270 271 272
v 273 274 -275 -276 277 -278 -279 -280 281 -282 283 284 -285 -286 287 -288 289
v 290 -291 292 -293 -294 295 -296 -297 298 299 -300 301 302 303 304 305 -306
v -307 308 -309 310 -311 312 313 314 -315 -316 317 318 319 320 -321 322 -323
v 324 -325 -326 -327 328 329 330 331 332 -333 -334 335 336 337 -338 -339 -340
v 341 -342 343 344 -345 346 347 348 349 350 -351 352 -353 -354 -355 -356 357
v -358 -359 360 -361 -362 -363 364 -365 366 367 368 -369 370 371 -372 -373 374
v -375 -376 -377 -378 -379 -380 -381 -382 -383 -384 -385 -386 -387 -388 -389
v -390 391 -392 393 -394 395 396 -397 398 399 -400 401 -402 403 -404 -405 -406
v 407 -408 409 410 411 412 413 414 -415 -416 417 -418 -419 -420 421 -422 -423
v -424 -425 426 427 428 429 -430 431 -432 433 434 -435 -436 -437 -438 -439 440
v 441 -442 443 -444 445 -446 447 -448 -449 -450 -451 452 453 -454 455 -456 457
v 458 -459 460 461 462 -463 -464 -465 466 -467 -468 469 -470 471 472 -473 474
v -475 -476 -477 478 479 480 481 -482 483 484 -485 486 487 488 -489 -490 491
v 492 493 -494 495 496 497 -498 -499 500 -501 502 503 504 505 506 -507 508
v -509 510 -511 512 513 -514 -515 516 -517 -518 519 -520 521 -522 523 -524 525
v 526 527 528 529 530 -531 532 -533 534 -535 -536 -537 -538 -539 540 -541 542
v 543 -544 -545 -546 -547 548 549 -550 551 -552 553 554 -555 556 557 558 -559
v -560 -561 562 -563 -564 565 -566 567 568 -569 570 -571 572 -573 -574 575 576
v -577 -578 -579 580 -581 582 -583 584 585 586 -587 -588 589 -590 591 592 -593
... skipped 21087 lines ...
v -220310 220311 -220312 -220313 -220314 220315 -220316 -220317 220318 -220319
v 220320 -220321 220322 -220323 220324 -220325 -220326 220327 -220328 -220329
v 220330 -220331 220332 -220333 220334 -220335 220336 -220337 220338 -220339
v 220340 -220341 -220342 220343 -220344 -220345 -220346 220347 -220348 -220349
v 220350 -220351 220352 -220353 -220354 220355 -220356 -220357 220358 -220359
v 220360 -220361 220362 -220363 220364 -220365 -220366 220367 -220368 -220369
v 220370 -220371 220372 -220373 220374 -220375 220376 -220377 -220378 220379
v -220380 -220381 220382 -220383 220384 -220385 -220386 220387 -220388 -220389
v -220390 220391 -220392 -220393 220394 -220395 220396 -220397 220398 -220399
v 220400 -220401 220402 -220403 220404 -220405 -220406 220407 -220408 -220409
v 220410 -220411 220412 -220413 -220414 220415 -220416 -220417 -220418 220419
v -220420 -220421 -220422 -220423 -220424 -220425 220426 -220427 -220428
v -220429 220430 -220431 -220432 -220433 220434 -220435 -220436 -220437 220438
v -220439 -220440 -220441 220442 -220443 -220444 -220445 220446 -220447
v -220448 -220449 220450 -220451 -220452 -220453 220454 -220455 -220456
v -220457 220458 -220459 -220460 -220461 220462 -220463 -220464 -220465 220466
v -220467 -220468 -220469 220470 -220471 -220472 -220473 220474 -220475
v -220476 -220477 220478 -220479 -220480 -220481 220482 -220483 -220484
v -220485 220486 -220487 -220488 -220489 220490 -220491 -220492 -220493 220494
v -220495 -220496 -220497 220498 -220499 -220500 -220501 220502 -220503
v -220504 -220505 220506 -220507 -220508 -220509 220510 -220511 -220512
v -220513 220514 -220515 -220516 -220517 220518 -220519 -220520 -220521 220522
v -220523 -220524 -220525 220526 -220527 -220528 -220529 220530 -220531
v -220532 -220533 220534 -220535 -220536 -220537 220538 -220539 -220540
v -220541 220542 -220543 -220544 -220545 220546 -220547 -220548 -220549 220550
v -220551 -220552 -220553 -220554 -220555 220556 -220557 -220558 -220559
v 220560 -220561 -220562 -220563 220564 -220565 -220566 220567 -220568 220569
v -220570 -220571 220572 -220573 -220574 220575 -220576 220577 -220578 220579
v -220580 220581 -220582 220583 -220584 220585 -220586 -220587 220588 -220589
v -220590 -220591 220592 -220593 -220594 -220595 220596 -220597 -220598
v -220599 220600 -220601 -220602 220603 -220604 220605 -220606 -220607 220608
v -220609 -220610 -220611 220612 -220613 -220614 220615 -220616 220617 -220618
v 220619 -220620 220621 -220622 -220623 220624 -220625 -220626 -220627 220628
v -220629 -220630 220631 -220632 220633 -220634 220635 -220636 220637 -220638
v -220639 220640 -220641 -220642 220643 -220644 220645 -220646 220647 -220648
v 220649 -220650 220651 -220652 220653 -220654 220655 -220656 220657 -220658
v -220659 220660 -220661 -220662 -220663 220664 -220665 -220666 -220667 220668
v -220669 -220670 -220671 220672 -220673 -220674 220675 -220676 220677 -220678
v 220679 -220680 220681 -220682 -220683 -220684 -220685 220686 -220687 -220688
v -220689 220690 -220691 -220692 -220693 220694 -220695 -220696 220697 -220698
v 220699 -220700 -220701 220702 -220703 -220704 220705 -220706 220707 -220708
v -220709 220710 -220711 -220712 220713 -220714 220715 -220716 220717 -220718
v 220719 -220720 220721 -220722 220723 -220724 220725 -220726 220727 -220728
v -220729 220730 -220731 -220732 220733 -220734 220735 -220736 -220737 220738
v -220739 -220740 220741 -220742 220743 -220744 220745 -220746 220747 -220748
v -220749 220750 -220751 -220752 -220753 220754 -220755 -220756 -220757 220758
v -220759 -220760 220761 -220762 220763 -220764 -220765 220766 -220767 -220768
v -220769 220770 -220771 -220772 220773 -220774 220775 -220776 220777 -220778
v 220779 -220780 -220781 220782 -220783 -220784 -220785 220786 -220787 -220788
v 220789 -220790 220791 -220792 -220793 220794 -220795 -220796 220797 -220798
v 220799 -220800 220801 -220802 220803 -220804 -220805 220806 -220807 -220808
v 220809 -220810 0
c 
c --- [ run-time profiling ] -------------------------------------------------
c 
c process time taken by individual solving procedures
c (percentage relative to process time for solving)
c 
c         1.42   99.99% search
c         0.84   59.22% unstable
c         0.55   38.40% stable
c         0.11    7.53% parse
c         0.03    2.37% lucky
c         0.00    0.00% simplify
c   =================================
c         1.42   92.26% solve
c 
c last line shows process time for solving
c (percentage relative to total process time)
c 
c --- [ statistics ] ---------------------------------------------------------
c 
c chronological:              1869        30.26 %  of conflicts
c conflicts:                  6177      4348.30    per second
c decisions:                 48251     33966.33    per second
c fixed:                     14260         6.46 %  of all variables
c learned:                    5945        96.24 %  per conflict
c learned_lits:             250633       100.00 %  learned literals
c minimized:                     0         0.00 %  learned literals
c shrunken:                  41124        16.41 %  learned literals
c minishrunken:              50696        20.23 %  learned literals
c otfs:                         67         1.08 %  of conflict
c propagations:           26382006        18.57 M  per second
c rephased:                      3      2059.00    interval
c restarts:                    218        28.33    interval
c stabilizing:                   1        32.38 %  of conflicts
c subsumed:                    433         0.07 %  of all clauses
c strengthened:                 66         0.01 %  of all clauses
c 
c seconds are measured in process time for solving
c 
c --- [ resources ] ----------------------------------------------------------
c 
c total process time since initialization:         1.54    seconds
c total real time since initialization:            1.55    seconds
c maximum resident set size of process:          108.93    MB
c 
c --- [ shutting down ] ------------------------------------------------------
c 
c exit 10
